*SENSE:Minimize
NAME          MODEL
ROWS
 N  OBJ
 G  C0000000
 G  C0000001
 G  C0000002
 G  C0000003
 G  C0000004
 G  C0000005
 G  C0000006
 G  C0000007
 G  C0000008
 G  C0000009
 G  C0000010
 G  C0000011
 G  C0000012
 G  C0000013
 G  C0000014
COLUMNS
    X0000000  C0000000   1.425010000000e+03
    X0000000  OBJ        1.425010000000e+03
    X0000001  C0000001   1.200000000000e+02
    X0000001  OBJ        1.200000000000e+02
    X0000002  C0000002   1.134400000000e+02
    X0000002  OBJ        1.134400000000e+02
    X0000003  C0000003   1.050500000000e+02
    X0000003  OBJ        1.050500000000e+02
    X0000004  C0000004   1.193000000000e+02
    X0000004  OBJ        1.193000000000e+02
    X0000005  C0000005   9.329000000000e+01
    X0000005  OBJ        9.329000000000e+01
    X0000006  C0000006   1.396700000000e+02
    X0000006  OBJ        1.396700000000e+02
    X0000007  C0000007   8.736000000000e+01
    X0000007  OBJ        8.736000000000e+01
    X0000008  C0000008   1.058800000000e+02
    X0000008  OBJ        1.058800000000e+02
    X0000009  C0000009   1.527700000000e+02
    X0000009  OBJ        1.527700000000e+02
    X0000010  C0000010   1.730000000000e+02
    X0000010  OBJ        1.730000000000e+02
    X0000011  C0000011   2.549900000000e+02
    X0000011  OBJ        2.549900000000e+02
    X0000012  C0000012   1.115500000000e+02
    X0000012  OBJ        1.115500000000e+02
    X0000013  C0000013   1.050000000000e+02
    X0000013  OBJ        1.050000000000e+02
    X0000014  C0000014   1.505000000000e+02
    X0000014  OBJ        1.505000000000e+02
RHS
    RHS       C0000000   6.608924294847e-02
    RHS       C0000001   1.056401088085e-01
    RHS       C0000002   1.015740463420e-01
    RHS       C0000003   1.253982474777e-02
    RHS       C0000004   8.996612244186e-02
    RHS       C0000005   1.387630290504e-02
    RHS       C0000006   1.073517634767e-03
    RHS       C0000007   1.563825698145e-02
    RHS       C0000008   1.399270400274e-02
    RHS       C0000009   1.329016389634e-01
    RHS       C0000010   1.709117853913e-01
    RHS       C0000011   3.203025642878e-02
    RHS       C0000012   2.093997466761e-01
    RHS       C0000013   1.761105142164e-02
    RHS       C0000014   1.675539430620e-02
BOUNDS
ENDATA
